
Log started (V20.1.0.0) Sun Aug  7 17:48:17 2022


Problem 'pp.lp' read.
Read time = 0.00 sec. (0.00 ticks)
Version identifier: 20.1.0.0 | 2020-11-10 | 9bedb6d68
Tried aggregator 1 time.
LP Presolve eliminated 1 rows and 0 columns.
Reduced LP has 2 rows, 2 columns, and 4 nonzeros.
Presolve time = 0.00 sec. (0.00 ticks)

Iteration log . . .
Iteration:     1   Dual infeasibility =             0.000000

Dual simplex - Optimal:  Objective =  1.2000000000e+01
Solution time =    0.00 sec.  Iterations = 1 (1)
Deterministic time = 0.00 ticks  (3.51 ticks/sec)


Variable Name           Solution Value
x1                            5.000000
x2                            0.666667

Log started (V20.1.0.0) Sun Aug  7 17:51:36 2022


Problem 'pd.lp' read.
Read time = 0.00 sec. (0.00 ticks)
Version identifier: 20.1.0.0 | 2020-11-10 | 9bedb6d68
Tried aggregator 1 time.
No LP presolve or aggregator reductions.
Presolve time = 0.00 sec. (0.00 ticks)

Iteration log . . .
Iteration:     1   Dual objective     =            12.000000

Dual simplex - Optimal:  Objective =  1.2000000000e+01
Solution time =    0.00 sec.  Iterations = 1 (0)
Deterministic time = 0.00 ticks  (2.37 ticks/sec)


Variable Name           Solution Value
w2                            1.000000
All other variables matching '*' are 0.
